p cnf 200 1110
-101 11 0
-101 63 0
-101 8 0
-101 -81 0
-101 62 0
-101 39 0
-101 1 0
-101 -50 0
-101 -75 0
-101 -20 0
101 -11 -63 -8 81 -62 -39 -1 50 75 20 0
-102 -60 0
-102 26 0
-102 97 0
-102 66 0
-102 -35 0
-102 -70 0
-102 41 0
-102 -77 0
-102 74 0
-102 87 0
102 60 -26 -97 -66 35 70 -41 77 -74 -87 0
-103 -54 0
-103 -65 0
-103 -98 0
-103 -88 0
-103 -43 0
-103 -14 0
-103 -90 0
-103 83 0
-103 79 0
-103 -33 0
103 54 65 98 88 43 14 90 -83 -79 33 0
-104 -94 0
-104 -67 0
-104 91 0
-104 16 0
-104 38 0
-104 -100 0
-104 -45 0
-104 29 0
-104 31 0
-104 56 0
104 94 67 -91 -16 -38 100 45 -29 -31 -56 0
-105 51 0
-105 -24 0
-105 17 0
-105 -55 0
-105 62 0
-105 -84 0
-105 -22 0
-105 100 0
-105 -27 0
-105 -81 0
105 -51 24 -17 55 -62 84 22 -100 27 81 0
-106 -73 0
-106 86 0
-106 17 0
-106 88 0
-106 35 0
-106 4 0
-106 -96 0
-106 -89 0
-106 14 0
-106 81 0
106 73 -86 -17 -88 -35 -4 96 89 -14 -81 0
-107 -90 0
-107 32 0
-107 -24 0
-107 -35 0
-107 25 0
-107 96 0
-107 -80 0
-107 95 0
-107 75 0
-107 -98 0
107 90 -32 24 35 -25 -96 80 -95 -75 98 0
-108 -24 0
-108 -23 0
-108 -81 0
-108 -74 0
-108 -83 0
-108 -30 0
-108 20 0
-108 -9 0
-108 -56 0
-108 -47 0
108 24 23 81 74 83 30 -20 9 56 47 0
-109 -43 0
-109 -25 0
-109 -29 0
-109 -78 0
-109 -34 0
-109 59 0
-109 -9 0
-109 53 0
-109 35 0
-109 -3 0
109 43 25 29 78 34 -59 9 -53 -35 3 0
-110 -46 0
-110 76 0
-110 -64 0
-110 98 0
-110 -27 0
-110 77 0
-110 62 0
-110 15 0
-110 97 0
-110 40 0
110 46 -76 64 -98 27 -77 -62 -15 -97 -40 0
101 102 103 104 105 106 107 108 109 110 0
-111 -7 0
-111 -39 0
-111 3 0
-111 100 0
-111 -2 0
-111 -80 0
-111 46 0
-111 -82 0
-111 -33 0
-111 -59 0
111 7 39 -3 -100 2 80 -46 82 33 59 0
-112 -67 0
-112 41 0
-112 -49 0
-112 -39 0
-112 -22 0
-112 28 0
-112 88 0
-112 -27 0
-112 -32 0
-112 98 0
112 67 -41 49 39 22 -28 -88 27 32 -98 0
-113 16 0
-113 -50 0
-113 85 0
-113 -22 0
-113 -13 0
-113 33 0
-113 47 0
-113 -11 0
-113 -30 0
-113 -77 0
113 -16 50 -85 22 13 -33 -47 11 30 77 0
-114 73 0
-114 -40 0
-114 36 0
-114 96 0
-114 -4 0
-114 66 0
-114 -69 0
-114 12 0
-114 -61 0
-114 -97 0
114 -73 40 -36 -96 4 -66 69 -12 61 97 0
-115 -65 0
-115 -11 0
-115 28 0
-115 22 0
-115 -92 0
-115 79 0
-115 -10 0
-115 43 0
-115 -94 0
-115 -67 0
115 65 11 -28 -22 92 -79 10 -43 94 67 0
-116 80 0
-116 -100 0
-116 -25 0
-116 32 0
-116 60 0
-116 11 0
-116 30 0
-116 97 0
-116 -62 0
-116 -72 0
116 -80 100 25 -32 -60 -11 -30 -97 62 72 0
-117 -68 0
-117 -94 0
-117 5 0
-117 -14 0
-117 -39 0
-117 -84 0
-117 -22 0
-117 36 0
-117 -57 0
-117 -83 0
117 68 94 -5 14 39 84 22 -36 57 83 0
-118 4 0
-118 -1 0
-118 -100 0
-118 50 0
-118 -38 0
-118 -43 0
-118 98 0
-118 18 0
-118 34 0
-118 67 0
118 -4 1 100 -50 38 43 -98 -18 -34 -67 0
-119 90 0
-119 -39 0
-119 -11 0
-119 71 0
-119 -69 0
-119 1 0
-119 92 0
-119 77 0
-119 -50 0
-119 43 0
119 -90 39 11 -71 69 -1 -92 -77 50 -43 0
-120 94 0
-120 47 0
-120 -16 0
-120 79 0
-120 -45 0
-120 -53 0
-120 -36 0
-120 -51 0
-120 -91 0
-120 8 0
120 -94 -47 16 -79 45 53 36 51 91 -8 0
111 112 113 114 115 116 117 118 119 120 0
-121 30 0
-121 -80 0
-121 20 0
-121 -52 0
-121 38 0
-121 82 0
-121 99 0
-121 94 0
-121 -62 0
-121 29 0
121 -30 80 -20 52 -38 -82 -99 -94 62 -29 0
-122 -88 0
-122 -65 0
-122 -90 0
-122 23 0
-122 38 0
-122 16 0
-122 96 0
-122 -82 0
-122 -74 0
-122 -47 0
122 88 65 90 -23 -38 -16 -96 82 74 47 0
-123 29 0
-123 24 0
-123 -1 0
-123 -59 0
-123 -72 0
-123 -31 0
-123 -98 0
-123 -61 0
-123 -9 0
-123 5 0
123 -29 -24 1 59 72 31 98 61 9 -5 0
-124 80 0
-124 15 0
-124 23 0
-124 -28 0
-124 74 0
-124 77 0
-124 -30 0
-124 -54 0
-124 -40 0
-124 65 0
124 -80 -15 -23 28 -74 -77 30 54 40 -65 0
-125 65 0
-125 90 0
-125 48 0
-125 -52 0
-125 24 0
-125 -53 0
-125 17 0
-125 -30 0
-125 -66 0
-125 14 0
125 -65 -90 -48 52 -24 53 -17 30 66 -14 0
-126 -86 0
-126 100 0
-126 -48 0
-126 -66 0
-126 41 0
-126 77 0
-126 20 0
-126 47 0
-126 16 0
-126 76 0
126 86 -100 48 66 -41 -77 -20 -47 -16 -76 0
-127 22 0
-127 -32 0
-127 47 0
-127 -28 0
-127 42 0
-127 91 0
-127 -12 0
-127 -36 0
-127 39 0
-127 94 0
127 -22 32 -47 28 -42 -91 12 36 -39 -94 0
-128 93 0
-128 54 0
-128 6 0
-128 46 0
-128 76 0
-128 63 0
-128 56 0
-128 -42 0
-128 -57 0
-128 61 0
128 -93 -54 -6 -46 -76 -63 -56 42 57 -61 0
-129 3 0
-129 69 0
-129 66 0
-129 63 0
-129 -29 0
-129 -99 0
-129 -70 0
-129 28 0
-129 -98 0
-129 87 0
129 -3 -69 -66 -63 29 99 70 -28 98 -87 0
-130 -98 0
-130 100 0
-130 -41 0
-130 -15 0
-130 -47 0
-130 73 0
-130 80 0
-130 26 0
-130 66 0
-130 -71 0
130 98 -100 41 15 47 -73 -80 -26 -66 71 0
121 122 123 124 125 126 127 128 129 130 0
-131 -60 0
-131 31 0
-131 -49 0
-131 -30 0
-131 4 0
-131 -57 0
-131 70 0
-131 68 0
-131 45 0
-131 -19 0
131 60 -31 49 30 -4 57 -70 -68 -45 19 0
-132 -39 0
-132 12 0
-132 -3 0
-132 64 0
-132 36 0
-132 -58 0
-132 -46 0
-132 -29 0
-132 -61 0
-132 95 0
132 39 -12 3 -64 -36 58 46 29 61 -95 0
-133 -24 0
-133 87 0
-133 -71 0
-133 -21 0
-133 -6 0
-133 -1 0
-133 15 0
-133 28 0
-133 -88 0
-133 2 0
133 24 -87 71 21 6 1 -15 -28 88 -2 0
-134 37 0
-134 5 0
-134 52 0
-134 44 0
-134 14 0
-134 -70 0
-134 99 0
-134 94 0
-134 79 0
-134 -39 0
134 -37 -5 -52 -44 -14 70 -99 -94 -79 39 0
-135 36 0
-135 -61 0
-135 91 0
-135 -59 0
-135 -82 0
-135 16 0
-135 -48 0
-135 -60 0
-135 -41 0
-135 4 0
135 -36 61 -91 59 82 -16 48 60 41 -4 0
-136 30 0
-136 46 0
-136 -29 0
-136 -84 0
-136 -1 0
-136 -20 0
-136 -28 0
-136 13 0
-136 -91 0
-136 -5 0
136 -30 -46 29 84 1 20 28 -13 91 5 0
-137 -36 0
-137 -78 0
-137 92 0
-137 -12 0
-137 -71 0
-137 -32 0
-137 99 0
-137 -59 0
-137 -53 0
-137 19 0
137 36 78 -92 12 71 32 -99 59 53 -19 0
-138 99 0
-138 75 0
-138 56 0
-138 3 0
-138 63 0
-138 38 0
-138 87 0
-138 -35 0
-138 -76 0
-138 -64 0
138 -99 -75 -56 -3 -63 -38 -87 35 76 64 0
-139 -46 0
-139 33 0
-139 67 0
-139 98 0
-139 91 0
-139 -60 0
-139 -56 0
-139 -65 0
-139 92 0
-139 -8 0
139 46 -33 -67 -98 -91 60 56 65 -92 8 0
-140 -55 0
-140 67 0
-140 58 0
-140 -73 0
-140 -86 0
-140 56 0
-140 -15 0
-140 -99 0
-140 -93 0
-140 -2 0
140 55 -67 -58 73 86 -56 15 99 93 2 0
131 132 133 134 135 136 137 138 139 140 0
-141 80 0
-141 20 0
-141 -24 0
-141 -99 0
-141 84 0
-141 -61 0
-141 9 0
-141 55 0
-141 32 0
-141 -51 0
141 -80 -20 24 99 -84 61 -9 -55 -32 51 0
-142 -76 0
-142 -28 0
-142 17 0
-142 35 0
-142 -8 0
-142 -19 0
-142 -85 0
-142 -87 0
-142 -75 0
-142 -9 0
142 76 28 -17 -35 8 19 85 87 75 9 0
-143 -6 0
-143 -91 0
-143 -79 0
-143 98 0
-143 -33 0
-143 14 0
-143 27 0
-143 -60 0
-143 -80 0
-143 -81 0
143 6 91 79 -98 33 -14 -27 60 80 81 0
-144 -86 0
-144 -20 0
-144 -84 0
-144 -44 0
-144 -19 0
-144 40 0
-144 -87 0
-144 94 0
-144 -47 0
-144 3 0
144 86 20 84 44 19 -40 87 -94 47 -3 0
-145 -58 0
-145 -96 0
-145 50 0
-145 87 0
-145 -71 0
-145 -22 0
-145 -34 0
-145 -98 0
-145 16 0
-145 -65 0
145 58 96 -50 -87 71 22 34 98 -16 65 0
-146 -14 0
-146 40 0
-146 22 0
-146 -35 0
-146 -59 0
-146 -54 0
-146 39 0
-146 -45 0
-146 -17 0
-146 -50 0
146 14 -40 -22 35 59 54 -39 45 17 50 0
-147 7 0
-147 -11 0
-147 -3 0
-147 -88 0
-147 62 0
-147 -90 0
-147 6 0
-147 94 0
-147 4 0
-147 -93 0
147 -7 11 3 88 -62 90 -6 -94 -4 93 0
-148 -30 0
-148 36 0
-148 83 0
-148 -25 0
-148 29 0
-148 -16 0
-148 28 0
-148 -1 0
-148 12 0
-148 86 0
148 30 -36 -83 25 -29 16 -28 1 -12 -86 0
-149 41 0
-149 73 0
-149 -61 0
-149 69 0
-149 -28 0
-149 22 0
-149 -31 0
-149 -56 0
-149 66 0
-149 71 0
149 -41 -73 61 -69 28 -22 31 56 -66 -71 0
-150 -92 0
-150 21 0
-150 73 0
-150 -1 0
-150 -87 0
-150 -41 0
-150 -54 0
-150 76 0
-150 -9 0
-150 -81 0
150 92 -21 -73 1 87 41 54 -76 9 81 0
141 142 143 144 145 146 147 148 149 150 0
-151 -65 0
-151 57 0
-151 -25 0
-151 -30 0
-151 -59 0
-151 88 0
-151 62 0
-151 -52 0
-151 97 0
-151 56 0
151 65 -57 25 30 59 -88 -62 52 -97 -56 0
-152 50 0
-152 -78 0
-152 2 0
-152 87 0
-152 85 0
-152 -14 0
-152 -66 0
-152 72 0
-152 52 0
-152 13 0
152 -50 78 -2 -87 -85 14 66 -72 -52 -13 0
-153 31 0
-153 45 0
-153 -10 0
-153 -92 0
-153 87 0
-153 7 0
-153 -62 0
-153 -39 0
-153 15 0
-153 -17 0
153 -31 -45 10 92 -87 -7 62 39 -15 17 0
-154 74 0
-154 -29 0
-154 -81 0
-154 93 0
-154 -25 0
-154 86 0
-154 -7 0
-154 -1 0
-154 -62 0
-154 -51 0
154 -74 29 81 -93 25 -86 7 1 62 51 0
-155 -53 0
-155 -3 0
-155 -50 0
-155 -85 0
-155 35 0
-155 64 0
-155 -30 0
-155 -2 0
-155 80 0
-155 -72 0
155 53 3 50 85 -35 -64 30 2 -80 72 0
-156 -14 0
-156 -85 0
-156 -43 0
-156 80 0
-156 62 0
-156 34 0
-156 72 0
-156 -86 0
-156 -48 0
-156 3 0
156 14 85 43 -80 -62 -34 -72 86 48 -3 0
-157 71 0
-157 -44 0
-157 -19 0
-157 -83 0
-157 68 0
-157 69 0
-157 -17 0
-157 -31 0
-157 -94 0
-157 89 0
157 -71 44 19 83 -68 -69 17 31 94 -89 0
-158 -90 0
-158 -19 0
-158 12 0
-158 -45 0
-158 -71 0
-158 -1 0
-158 14 0
-158 20 0
-158 83 0
-158 62 0
158 90 19 -12 45 71 1 -14 -20 -83 -62 0
-159 19 0
-159 59 0
-159 12 0
-159 46 0
-159 56 0
-159 82 0
-159 -54 0
-159 -84 0
-159 -4 0
-159 23 0
159 -19 -59 -12 -46 -56 -82 54 84 4 -23 0
-160 22 0
-160 35 0
-160 -97 0
-160 -58 0
-160 -96 0
-160 -62 0
-160 -1 0
-160 -79 0
-160 66 0
-160 81 0
160 -22 -35 97 58 96 62 1 79 -66 -81 0
151 152 153 154 155 156 157 158 159 160 0
-161 -24 0
-161 80 0
-161 52 0
-161 65 0
-161 -87 0
-161 -4 0
-161 -92 0
-161 -8 0
-161 53 0
-161 -6 0
161 24 -80 -52 -65 87 4 92 8 -53 6 0
-162 61 0
-162 -63 0
-162 -99 0
-162 -44 0
-162 24 0
-162 41 0
-162 -7 0
-162 -4 0
-162 -32 0
-162 -29 0
162 -61 63 99 44 -24 -41 7 4 32 29 0
-163 22 0
-163 19 0
-163 -35 0
-163 -74 0
-163 -10 0
-163 37 0
-163 33 0
-163 -72 0
-163 57 0
-163 18 0
163 -22 -19 35 74 10 -37 -33 72 -57 -18 0
-164 -90 0
-164 60 0
-164 84 0
-164 -82 0
-164 -64 0
-164 -87 0
-164 41 0
-164 -37 0
-164 -46 0
-164 -96 0
164 90 -60 -84 82 64 87 -41 37 46 96 0
-165 -80 0
-165 -71 0
-165 -38 0
-165 -37 0
-165 81 0
-165 5 0
-165 -59 0
-165 17 0
-165 99 0
-165 25 0
165 80 71 38 37 -81 -5 59 -17 -99 -25 0
-166 -46 0
-166 32 0
-166 19 0
-166 73 0
-166 61 0
-166 -72 0
-166 -7 0
-166 -49 0
-166 87 0
-166 34 0
166 46 -32 -19 -73 -61 72 7 49 -87 -34 0
-167 -62 0
-167 48 0
-167 65 0
-167 -23 0
-167 66 0
-167 30 0
-167 96 0
-167 -79 0
-167 -76 0
-167 1 0
167 62 -48 -65 23 -66 -30 -96 79 76 -1 0
-168 -12 0
-168 -92 0
-168 10 0
-168 26 0
-168 70 0
-168 27 0
-168 -5 0
-168 84 0
-168 -90 0
-168 -34 0
168 12 92 -10 -26 -70 -27 5 -84 90 34 0
-169 -54 0
-169 -85 0
-169 -5 0
-169 -92 0
-169 57 0
-169 -7 0
-169 79 0
-169 8 0
-169 69 0
-169 -100 0
169 54 85 5 92 -57 7 -79 -8 -69 100 0
-170 -45 0
-170 -61 0
-170 -17 0
-170 -65 0
-170 -80 0
-170 -86 0
-170 94 0
-170 -50 0
-170 20 0
-170 -47 0
170 45 61 17 65 80 86 -94 50 -20 47 0
161 162 163 164 165 166 167 168 169 170 0
-171 -93 0
-171 22 0
-171 -35 0
-171 -80 0
-171 72 0
-171 -42 0
-171 97 0
-171 -38 0
-171 -3 0
-171 -63 0
171 93 -22 35 80 -72 42 -97 38 3 63 0
-172 67 0
-172 36 0
-172 6 0
-172 -41 0
-172 98 0
-172 -100 0
-172 47 0
-172 -33 0
-172 -53 0
-172 -19 0
172 -67 -36 -6 41 -98 100 -47 33 53 19 0
-173 -83 0
-173 14 0
-173 -31 0
-173 -53 0
-173 -44 0
-173 32 0
-173 93 0
-173 8 0
-173 -52 0
-173 68 0
173 83 -14 31 53 44 -32 -93 -8 52 -68 0
-174 -43 0
-174 -28 0
-174 48 0
-174 -14 0
-174 52 0
-174 44 0
-174 41 0
-174 57 0
-174 -33 0
-174 -100 0
174 43 28 -48 14 -52 -44 -41 -57 33 100 0
-175 51 0
-175 -78 0
-175 -14 0
-175 93 0
-175 -12 0
-175 89 0
-175 -76 0
-175 3 0
-175 69 0
-175 18 0
175 -51 78 14 -93 12 -89 76 -3 -69 -18 0
-176 31 0
-176 -49 0
-176 61 0
-176 -60 0
-176 96 0
-176 -11 0
-176 71 0
-176 73 0
-176 -4 0
-176 35 0
176 -31 49 -61 60 -96 11 -71 -73 4 -35 0
-177 67 0
-177 87 0
-177 51 0
-177 72 0
-177 53 0
-177 -20 0
-177 -90 0
-177 -38 0
-177 -17 0
-177 47 0
177 -67 -87 -51 -72 -53 20 90 38 17 -47 0
-178 -37 0
-178 23 0
-178 56 0
-178 -9 0
-178 -76 0
-178 86 0
-178 33 0
-178 88 0
-178 66 0
-178 -68 0
178 37 -23 -56 9 76 -86 -33 -88 -66 68 0
-179 -57 0
-179 18 0
-179 36 0
-179 5 0
-179 -65 0
-179 -86 0
-179 22 0
-179 -79 0
-179 43 0
-179 17 0
179 57 -18 -36 -5 65 86 -22 79 -43 -17 0
-180 50 0
-180 -67 0
-180 -33 0
-180 90 0
-180 51 0
-180 -53 0
-180 -20 0
-180 78 0
-180 99 0
-180 -60 0
180 -50 67 33 -90 -51 53 20 -78 -99 60 0
171 172 173 174 175 176 177 178 179 180 0
-181 -14 0
-181 41 0
-181 -1 0
-181 52 0
-181 -56 0
-181 -3 0
-181 -54 0
-181 67 0
-181 -16 0
-181 95 0
181 14 -41 1 -52 56 3 54 -67 16 -95 0
-182 94 0
-182 -60 0
-182 -11 0
-182 -48 0
-182 1 0
-182 -6 0
-182 -27 0
-182 84 0
-182 -72 0
-182 -9 0
182 -94 60 11 48 -1 6 27 -84 72 9 0
-183 13 0
-183 86 0
-183 -31 0
-183 -91 0
-183 -42 0
-183 67 0
-183 -43 0
-183 24 0
-183 -49 0
-183 -57 0
183 -13 -86 31 91 42 -67 43 -24 49 57 0
-184 44 0
-184 50 0
-184 -51 0
-184 -34 0
-184 -79 0
-184 -5 0
-184 41 0
-184 98 0
-184 89 0
-184 -8 0
184 -44 -50 51 34 79 5 -41 -98 -89 8 0
-185 2 0
-185 52 0
-185 82 0
-185 49 0
-185 -10 0
-185 32 0
-185 46 0
-185 -40 0
-185 19 0
-185 -11 0
185 -2 -52 -82 -49 10 -32 -46 40 -19 11 0
-186 -71 0
-186 -84 0
-186 -7 0
-186 -97 0
-186 56 0
-186 -33 0
-186 35 0
-186 -1 0
-186 -83 0
-186 79 0
186 71 84 7 97 -56 33 -35 1 83 -79 0
-187 85 0
-187 -84 0
-187 31 0
-187 17 0
-187 -95 0
-187 11 0
-187 30 0
-187 43 0
-187 57 0
-187 15 0
187 -85 84 -31 -17 95 -11 -30 -43 -57 -15 0
-188 16 0
-188 50 0
-188 -82 0
-188 -32 0
-188 -37 0
-188 -63 0
-188 -3 0
-188 -91 0
-188 51 0
-188 56 0
188 -16 -50 82 32 37 63 3 91 -51 -56 0
-189 -82 0
-189 -5 0
-189 -45 0
-189 -73 0
-189 47 0
-189 58 0
-189 -13 0
-189 63 0
-189 2 0
-189 -43 0
189 82 5 45 73 -47 -58 13 -63 -2 43 0
-190 -10 0
-190 12 0
-190 -55 0
-190 -39 0
-190 -26 0
-190 45 0
-190 84 0
-190 -90 0
-190 37 0
-190 -94 0
190 10 -12 55 39 26 -45 -84 90 -37 94 0
181 182 183 184 185 186 187 188 189 190 0
-191 -13 0
-191 -37 0
-191 -57 0
-191 -76 0
-191 60 0
-191 74 0
-191 -84 0
-191 -90 0
-191 44 0
-191 63 0
191 13 37 57 76 -60 -74 84 90 -44 -63 0
-192 83 0
-192 -89 0
-192 54 0
-192 -36 0
-192 86 0
-192 -79 0
-192 100 0
-192 -65 0
-192 -74 0
-192 -76 0
192 -83 89 -54 36 -86 79 -100 65 74 76 0
-193 -90 0
-193 -71 0
-193 -83 0
-193 -70 0
-193 -28 0
-193 53 0
-193 18 0
-193 -93 0
-193 59 0
-193 -36 0
193 90 71 83 70 28 -53 -18 93 -59 36 0
-194 -8 0
-194 -40 0
-194 -55 0
-194 34 0
-194 69 0
-194 13 0
-194 91 0
-194 86 0
-194 -89 0
-194 76 0
194 8 40 55 -34 -69 -13 -91 -86 89 -76 0
-195 44 0
-195 -45 0
-195 -50 0
-195 64 0
-195 -20 0
-195 -3 0
-195 -7 0
-195 -9 0
-195 -92 0
-195 -55 0
195 -44 45 50 -64 20 3 7 9 92 55 0
-196 -82 0
-196 40 0
-196 -70 0
-196 -54 0
-196 38 0
-196 45 0
-196 -24 0
-196 33 0
-196 73 0
-196 -99 0
196 82 -40 70 54 -38 -45 24 -33 -73 99 0
-197 -58 0
-197 98 0
-197 39 0
-197 -82 0
-197 87 0
-197 54 0
-197 37 0
-197 -67 0
-197 -64 0
-197 -1 0
197 58 -98 -39 82 -87 -54 -37 67 64 1 0
-198 -42 0
-198 84 0
-198 -99 0
-198 -83 0
-198 -69 0
-198 49 0
-198 44 0
-198 -12 0
-198 -20 0
-198 43 0
198 42 -84 99 83 69 -49 -44 12 20 -43 0
-199 -47 0
-199 -29 0
-199 65 0
-199 -84 0
-199 4 0
-199 33 0
-199 -81 0
-199 -97 0
-199 -69 0
-199 -80 0
199 47 29 -65 84 -4 -33 81 97 69 80 0
-200 -64 0
-200 90 0
-200 59 0
-200 99 0
-200 -34 0
-200 81 0
-200 21 0
-200 -61 0
-200 -20 0
-200 -79 0
200 64 -90 -59 -99 34 -81 -21 61 20 79 0
191 192 193 194 195 196 197 198 199 200 0
